66
16
55
71
41
93
30
5
12
52
13
40
77
65
11
51
2
42
44
82
26
21
15
10
68
39
74
6
79
37
35
46
99
3
18
76
34
4
64
47
31
38
50
54
43
57
48
8
85
17
98
59
95
96
62
19
61
87
67
27
97
89
1
24
0
60
72
78
49
75
80
9
33
58
69
20
91
86
25
92
7
36
73
94
14
23
56
84
88
29
45
81
83
28
32
90
53
70
22
63
